Route #1: 26 67 52 27 13 57 5 48 29 45 30
Route #2: 2 74 28 61 21 47 36 69 71 60 70 20 37 15
Route #3: 4 34 46 8 19 54 59 14 35 7
Route #4: 53 11 66 65 38 31 10 58 72 12
Route #5: 17 3 44 32 50 18 55 25 9 39 40
Route #6: 24 49 23 56 41 43 42 64 22 62 1 73 6
Route #7: 51 16 63 33 68 75
Cost 737